NAME: tsp25_13
COMMENT: 25-tsp problem (Padberg/Rinaldi)
TYPE: TSP
DIMENSION: 25
EDGE_WEIGHT_TYPE : EUC_2D
NODE_COORD_SECTION
1 5 33
2 31 17
3 9 28
4 33 13
5 1 39
6 9 26
7 18 9
8 18 3
9 28 2
10 14 5
11 40 1
12 10 36
13 8 6
14 26 7
15 40 37
16 8 37
17 18 5
18 3 21
19 27 21
20 8 38
21 18 16
22 19 38
23 11 32
24 35 8
25 0 36
